FILENAME:   /home/mcs001/s132664/testsets/IP/miplib2017/supportcase30.mps.gz
SETTINGS:   settings_final_nosym_norestarts
TIMELIMIT:  7200
OUTPUTNAME: final_miplib_symretope_if_extended_generating_set_cpx_v802__settings_final_nosym_norestarts__1__
BINNAME:    bin/sbcs.linux.x86_64.gnu.opt.cpx
BASENAME:   supportcase30.mps.gz
SEED:       1
@01 /home/mcs001/s132664/testsets/IP/miplib2017/supportcase30.mps.gz ===========
@02 supportcase30.mps.gz
@03 1686651601
SCIP version 8.0.2 [precision: 8 byte] [memory: block] [mode: optimized] [LP solver: CPLEX 20.1.0.0] [GitHash: 5f0473c]
Copyright (C) 2002-2022 Konrad-Zuse-Zentrum fuer Informationstechnik Berlin (ZIB)

Symretope propagation methods - (c) Jasper van Doornmalen, Christopher Hojny.
[GitHash: 2fd0484]

reading parameter file <../settings/settings_final_nosym_norestarts.set> ...

Changed settings:
limits/time = 7200
limits/restarts = 0
misc/usesymmetry = 0
randomization/randomseedshift = 1
constraints/orbisack/sepafreq = -1
constraints/symresack/sepafreq = -1
propagating/symmetry/detectsubgroups = FALSE
propagating/symmetry/usesymretopes = FALSE
propagating/symmetry/relabelsymretopes = 0
propagating/symmetry/ofsymcomptiming = 0
constraints/symretope/sepafreq = -1
constraints/symretope/peek = FALSE


solving problem ...

original problem has 1024 variables (1024 bin, 0 int, 0 impl, 0 cont) and 1028 constraints
presolving:
(round 1, exhaustive) 0 del vars, 0 del conss, 0 add conss, 0 chg bounds, 0 chg sides, 0 chg coeffs, 1024 upgd conss, 0 impls, 0 clqs
   (0.0s) probing: 51/1024 (5.0%) - 0 fixings, 0 aggregations, 0 implications, 0 bound changes
   (0.0s) probing aborted: 50/50 successive totally useless probings
presolving (2 rounds: 2 fast, 2 medium, 2 exhaustive):
 0 deleted vars, 0 deleted constraints, 0 added constraints, 0 tightened bounds, 0 added holes, 0 changed sides, 0 changed coefficients
 0 implications, 0 cliques
presolved problem has 1024 variables (1024 bin, 0 int, 0 impl, 0 cont) and 1028 constraints
      4 constraints of type <linear>
   1024 constraints of type <logicor>
transformed objective value is always integral (scale: 1)
Presolving Time: 0.04

 time | node  | left  |LP iter|LP it/n|mem/heur|mdpt |vars |cons |rows |cuts |sepa|confs|strbr|  dualbound   | primalbound  |  gap   | compl. 
  0.2s|     1 |     0 |     0 |     - |    14M |   0 |1024 |1028 |1028 |   0 |  0 |   0 |   0 | 0.000000e+00 |      --      |    Inf | unknown
  2.5s|     1 |     0 |  5461 |     - |    26M |   0 |1024 |1029 |1029 |   1 |  1 |   1 |   0 | 0.000000e+00 |      --      |    Inf | unknown
  2.7s|     1 |     0 |  5526 |     - |    33M |   0 |1024 |1030 |1030 |   2 |  2 |   2 |   0 | 0.000000e+00 |      --      |    Inf | unknown
  2.9s|     1 |     0 |  5569 |     - |    39M |   0 |1024 |1031 |1031 |   3 |  3 |   3 |   0 | 0.000000e+00 |      --      |    Inf | unknown
  3.2s|     1 |     0 |  5617 |     - |    45M |   0 |1024 |1032 |1033 |   5 |  4 |   4 |   0 | 0.000000e+00 |      --      |    Inf | unknown
  3.4s|     1 |     0 |  5670 |     - |    50M |   0 |1024 |1033 |1034 |   6 |  5 |   5 |   0 | 0.000000e+00 |      --      |    Inf | unknown
  3.6s|     1 |     0 |  5755 |     - |    56M |   0 |1024 |1034 |1036 |   8 |  6 |   6 |   0 | 0.000000e+00 |      --      |    Inf | unknown
  3.9s|     1 |     0 |  5843 |     - |    62M |   0 |1024 |1034 |1037 |   9 |  7 |   6 |   0 | 0.000000e+00 |      --      |    Inf | unknown
  4.1s|     1 |     0 |  5902 |     - |    68M |   0 |1024 |1034 |1038 |  10 |  8 |   6 |   0 | 0.000000e+00 |      --      |    Inf | unknown
  4.4s|     1 |     0 |  6013 |     - |    73M |   0 |1024 |1035 |1041 |  13 |  9 |   7 |   0 | 0.000000e+00 |      --      |    Inf | unknown
  4.7s|     1 |     0 |  6058 |     - |    79M |   0 |1024 |1036 |1042 |  14 | 10 |   8 |   0 | 0.000000e+00 |      --      |    Inf | unknown
  4.9s|     1 |     0 |  6082 |     - |    79M |   0 |1024 |1036 |1043 |  15 | 11 |   8 |   0 | 0.000000e+00 |      --      |    Inf | unknown
 11.7s|     1 |     2 | 13333 |     - |    79M |   0 |1024 |1037 |1043 |  15 | 11 |   9 |  19 | 0.000000e+00 |      --      |    Inf | unknown
 88.6s|   100 |   101 |318882 |3159.6 |   100M |  22 |1024 |1121 |1036 |  35 |  1 |  93 |  19 | 0.000000e+00 |      --      |    Inf | unknown
  166s|   200 |   125 |837287 |4176.9 |   103M |  40 |1024 |1240 |1038 |  41 |  1 | 218 |  19 | 0.000000e+00 |      --      |    Inf | unknown
 time | node  | left  |LP iter|LP it/n|mem/heur|mdpt |vars |cons |rows |cuts |sepa|confs|strbr|  dualbound   | primalbound  |  gap   | compl. 
  268s|   300 |   127 |  1509k|5027.6 |   106M |  40 |1024 |1277 |1037 |  70 |  0 | 338 |  19 | 0.000000e+00 |      --      |    Inf | unknown
  383s|   400 |   128 |  2273k|5681.8 |   107M |  40 |1024 |1360 |1038 |  73 |  1 | 456 |  19 | 0.000000e+00 |      --      |    Inf | unknown
  489s|   500 |   130 |  2971k|5943.0 |   107M |  40 |1024 |1439 |1038 |  73 |  1 | 535 |  19 | 0.000000e+00 |      --      |    Inf | unknown
  596s|   600 |   130 |  3686k|6144.0 |   107M |  40 |1024 |1535 |1038 |  73 |  0 | 631 |  19 | 0.000000e+00 |      --      |    Inf | unknown
  703s|   700 |   136 |  4382k|6260.4 |   107M |  40 |1024 |1626 |1038 |  73 |  1 | 722 |  19 | 0.000000e+00 |      --      |    Inf | unknown
  828s|   800 |   130 |  5207k|6509.9 |   107M |  40 |1024 |1732 |1038 |  73 |  0 | 828 |  19 | 0.000000e+00 |      --      |    Inf | unknown
  946s|   900 |   138 |  5988k|6654.4 |   107M |  40 |1024 |1816 |1038 |  73 |  1 | 912 |  19 | 0.000000e+00 |      --      |    Inf | unknown
 1069s|  1000 |   136 |  6779k|6780.1 |   105M |  40 |1024 |1904 |1040 |  82 |  0 |1000 |  19 | 0.000000e+00 |      --      |    Inf | unknown
 1186s|  1100 |   134 |  7551k|6866.1 |    86M |  40 |1024 |2000 |1040 |  87 |  0 |1096 |  19 | 0.000000e+00 |      --      |    Inf | unknown
 1296s|  1200 |   136 |  8272k|6894.7 |    70M |  40 |1024 |2092 |1041 | 102 |  1 |1188 |  19 | 0.000000e+00 |      --      |    Inf | unknown
 1423s|  1300 |   129 |  9062k|6971.8 |    71M |  40 |1024 |2179 |1044 | 136 |  0 |1277 |  19 | 0.000000e+00 |      --      |    Inf | unknown
 1544s|  1400 |   137 |  9791k|6994.6 |    71M |  40 |1024 |2256 |1043 | 142 |  0 |1355 |  19 | 0.000000e+00 |      --      |    Inf | unknown
 1666s|  1500 |   139 | 10554k|7036.7 |    71M |  40 |1024 |2347 |1044 | 145 |  1 |1451 |  19 | 0.000000e+00 |      --      |    Inf | unknown
 1762s|  1600 |   151 | 11152k|6970.8 |    71M |  40 |1024 |2378 |1046 | 149 |  0 |1527 |  19 | 0.000000e+00 |      --      |    Inf | unknown
 1848s|  1700 |   156 | 11674k|6867.6 |    71M |  40 |1024 |2489 |1048 | 153 |  0 |1638 |  19 | 0.000000e+00 |      --      |    Inf | unknown
 time | node  | left  |LP iter|LP it/n|mem/heur|mdpt |vars |cons |rows |cuts |sepa|confs|strbr|  dualbound   | primalbound  |  gap   | compl. 
 1975s|  1800 |   156 | 12461k|6923.6 |    72M |  43 |1024 |2605 |1049 | 164 |  1 |1832 |  19 | 0.000000e+00 |      --      |    Inf | unknown
 2093s|  1900 |   146 | 13191k|6943.1 |    72M |  43 |1024 |2701 |1050 | 188 |  1 |1956 |  19 | 0.000000e+00 |      --      |    Inf | unknown
 2206s|  2000 |   158 | 13885k|6943.2 |    72M |  43 |1024 |2771 |1050 | 188 |  1 |2033 |  19 | 0.000000e+00 |      --      |    Inf | unknown
 2325s|  2100 |   153 | 14634k|6969.2 |    59M |  43 |1024 |2870 |1051 | 189 |  0 |2144 |  19 | 0.000000e+00 |      --      |    Inf | unknown
 2446s|  2200 |   153 | 15374k|6988.7 |    58M |  43 |1024 |2944 |1052 | 192 |  1 |2235 |  19 | 0.000000e+00 |      --      |    Inf | unknown
 2567s|  2300 |   148 | 16100k|7000.5 |    58M |  43 |1024 |3013 |1054 | 203 |  1 |2335 |  19 | 0.000000e+00 |      --      |    Inf | unknown
 2675s|  2400 |   147 | 16754k|6981.5 |    58M |  43 |1024 |3109 |1050 | 209 |  1 |2436 |  19 | 0.000000e+00 |      --      |    Inf | unknown
 2769s|  2500 |   155 | 17315k|6926.5 |    59M |  43 |1024 |3192 |1051 | 213 |  0 |2532 |  19 | 0.000000e+00 |      --      |    Inf | unknown
 2872s|  2600 |   159 | 17946k|6903.0 |    59M |  43 |1024 |3279 |1050 | 213 |  1 |2630 |  19 | 0.000000e+00 |      --      |    Inf | unknown
 2977s|  2700 |   154 | 18600k|6889.3 |    59M |  43 |1024 |3362 |1053 | 216 |  0 |2732 |  19 | 0.000000e+00 |      --      |    Inf | unknown
 3083s|  2800 |   135 | 19239k|6871.6 |    59M |  43 |1024 |3350 |1051 | 223 |  0 |2855 |  19 | 0.000000e+00 |      --      |    Inf | unknown
 3192s|  2900 |   140 | 19901k|6862.8 |    59M |  43 |1024 |3421 |1053 | 225 |  0 |2953 |  19 | 0.000000e+00 |      --      |    Inf | unknown
 3313s|  3000 |   135 | 20660k|6887.0 |    59M |  43 |1024 |3637 |1054 | 226 |  0 |3221 |  19 | 0.000000e+00 |      --      |    Inf | unknown
 3417s|  3100 |   132 | 21295k|6869.9 |    57M |  43 |1024 |3657 |1045 | 238 |  2 |3323 |  19 | 0.000000e+00 |      --      |    Inf | unknown
 3510s|  3200 |   146 | 21858k|6831.1 |    56M |  43 |1024 |3732 |1042 | 252 |  1 |3410 |  19 | 0.000000e+00 |      --      |    Inf | unknown
 time | node  | left  |LP iter|LP it/n|mem/heur|mdpt |vars |cons |rows |cuts |sepa|confs|strbr|  dualbound   | primalbound  |  gap   | compl. 
 3604s|  3300 |   146 | 22428k|6796.7 |    56M |  43 |1024 |3841 |1044 | 269 |  1 |3519 |  19 | 0.000000e+00 |      --      |    Inf | unknown
 3712s|  3400 |   140 | 23080k|6788.7 |    56M |  43 |1024 |3942 |1046 | 283 |  1 |3621 |  19 | 0.000000e+00 |      --      |    Inf | unknown
 3805s|  3500 |   141 | 23648k|6756.8 |    55M |  43 |1024 |4040 |1045 | 291 |  1 |3719 |  19 | 0.000000e+00 |      --      |    Inf | unknown
 3898s|  3600 |   139 | 24212k|6725.8 |    55M |  43 |1024 |4148 |1047 | 299 |  1 |3828 |  19 | 0.000000e+00 |      --      |    Inf | unknown
 4000s|  3700 |   146 | 24829k|6710.9 |    55M |  43 |1024 |4229 |1041 | 307 |  0 |3914 |  19 | 0.000000e+00 |      --      |    Inf | unknown
 4097s|  3800 |   154 | 25423k|6690.5 |    55M |  43 |1024 |4320 |1050 | 323 |  1 |4009 |  19 | 0.000000e+00 |      --      |    Inf | unknown
 4203s|  3900 |   154 | 26064k|6683.4 |    55M |  43 |1024 |4423 |1045 | 334 |  0 |4112 |  19 | 0.000000e+00 |      --      |    Inf | unknown
 4301s|  4000 |   153 | 26665k|6666.5 |    55M |  43 |1024 |4519 |1050 | 351 |  1 |4208 |  19 | 0.000000e+00 |      --      |    Inf | unknown
 4405s|  4100 |   147 | 27284k|6654.8 |    55M |  43 |1024 |4617 |1046 | 364 |  1 |4308 |  19 | 0.000000e+00 |      --      |    Inf | unknown
 4517s|  4200 |   145 | 27926k|6649.4 |    61M |  44 |1024 |4692 |1047 | 424 |  1 |4383 |  19 | 0.000000e+00 |      --      |    Inf | unknown
 4611s|  4300 |   153 | 28479k|6623.4 |    61M |  47 |1024 |4771 |1047 | 449 |  1 |4464 |  19 | 0.000000e+00 |      --      |    Inf | unknown
 4709s|  4400 |   153 | 29052k|6602.9 |    61M |  47 |1024 |4876 |1063 | 468 |  1 |4569 |  19 | 0.000000e+00 |      --      |    Inf | unknown
 4817s|  4500 |   157 | 29698k|6599.7 |    61M |  47 |1024 |4964 |1052 | 494 |  0 |4659 |  19 | 0.000000e+00 |      --      |    Inf | unknown
 4929s|  4600 |   157 | 30346k|6597.1 |    61M |  47 |1024 |5060 |1047 | 526 |  1 |4755 |  19 | 0.000000e+00 |      --      |    Inf | unknown
 5030s|  4700 |   155 | 30937k|6582.5 |    61M |  47 |1024 |5169 |1062 | 557 |  1 |4864 |  19 | 0.000000e+00 |      --      |    Inf | unknown
 time | node  | left  |LP iter|LP it/n|mem/heur|mdpt |vars |cons |rows |cuts |sepa|confs|strbr|  dualbound   | primalbound  |  gap   | compl. 
 5153s|  4800 |   149 | 31655k|6595.1 |    61M |  47 |1024 |5280 |1065 | 571 |  0 |4976 |  19 | 0.000000e+00 |      --      |    Inf | unknown
 5264s|  4900 |   142 | 32312k|6594.4 |    61M |  47 |1024 |5389 |1046 | 578 |  0 |5097 |  19 | 0.000000e+00 |      --      |    Inf | unknown
 5357s|  5000 |   145 | 32846k|6569.4 |    59M |  47 |1024 |5475 |1047 | 594 |  1 |5205 |  19 | 0.000000e+00 |      --      |    Inf | unknown
 5455s|  5100 |   141 | 33400k|6549.1 |    57M |  47 |1024 |5508 |1048 | 625 |  1 |5322 |  19 | 0.000000e+00 |      --      |    Inf | unknown
 5559s|  5200 |   135 | 33998k|6538.2 |    57M |  47 |1024 |5527 |1050 | 658 |  0 |5439 |  19 | 0.000000e+00 |      --      |    Inf | unknown
 5652s|  5300 |   148 | 34556k|6520.2 |    58M |  47 |1024 |5608 |1057 | 682 |  2 |5525 |  19 | 0.000000e+00 |      --      |    Inf | unknown
 5761s|  5400 |   146 | 35214k|6521.3 |    58M |  47 |1024 |5681 |1050 | 695 |  0 |5623 |  19 | 0.000000e+00 |      --      |    Inf | unknown
 5878s|  5500 |   145 | 35901k|6527.6 |    58M |  47 |1024 |5741 |1055 | 709 |  0 |5727 |  19 | 0.000000e+00 |      --      |    Inf | unknown
 5980s|  5600 |   149 | 36508k|6519.5 |    58M |  47 |1024 |5838 |1050 | 733 |  0 |5827 |  19 | 0.000000e+00 |      --      |    Inf | unknown
 6100s|  5700 |   145 | 37209k|6528.0 |    58M |  47 |1024 |5933 |1057 | 738 |  1 |5930 |  19 | 0.000000e+00 |      --      |    Inf | unknown
 6203s|  5800 |   155 | 37805k|6518.2 |    58M |  47 |1024 |6003 |1057 | 740 |  1 |6010 |  19 | 0.000000e+00 |      --      |    Inf | unknown
 6317s|  5900 |   155 | 38470k|6520.6 |    58M |  47 |1024 |6112 |1059 | 747 |  0 |6119 |  19 | 0.000000e+00 |      --      |    Inf | unknown
 6430s|  6000 |   151 | 39104k|6517.4 |    53M |  47 |1024 |6221 |1064 | 769 |  1 |6228 |  19 | 0.000000e+00 |      --      |    Inf | unknown
 6550s|  6100 |   151 | 39802k|6525.1 |    53M |  47 |1024 |6319 |1058 | 783 |  0 |6326 |  19 | 0.000000e+00 |      --      |    Inf | unknown
 6674s|  6200 |   149 | 40518k|6535.4 |    53M |  47 |1024 |6429 |1063 | 802 |  0 |6436 |  19 | 0.000000e+00 |      --      |    Inf | unknown
 time | node  | left  |LP iter|LP it/n|mem/heur|mdpt |vars |cons |rows |cuts |sepa|confs|strbr|  dualbound   | primalbound  |  gap   | compl. 
 6798s|  6300 |   154 | 41192k|6538.6 |    53M |  47 |1024 |6560 |1045 | 812 |  1 |6662 |  19 | 0.000000e+00 |      --      |    Inf | unknown
 6893s|  6400 |   156 | 41781k|6528.5 |    53M |  47 |1024 |6659 |1052 | 844 |  0 |6761 |  19 | 0.000000e+00 |      --      |    Inf | unknown
 6991s|  6500 |   162 | 42357k|6516.7 |    53M |  47 |1024 |6748 |1062 | 854 |  1 |6850 |  19 | 0.000000e+00 |      --      |    Inf | unknown
 7095s|  6600 |   162 | 42968k|6510.4 |    54M |  47 |1024 |6850 |1063 | 864 |  0 |6952 |  19 | 0.000000e+00 |      --      |    Inf | unknown

SCIP Status        : solving was interrupted [time limit reached]
Solving Time (sec) : 7200.00
Solving Nodes      : 6699
Primal Bound       : +1.00000000000000e+20 (0 solutions)
Dual Bound         : +0.00000000000000e+00
Gap                : infinite
SCIP Status        : solving was interrupted [time limit reached]
Total Time         :    7200.01
  solving          :    7200.00
  presolving       :       0.04 (included in solving)
  reading          :       0.01
  copying          :       0.61 (81 #copies) (minimal 0.00, maximal 0.02, average 0.01)
Original Problem   :
  Problem name     : supportcase30
  Variables        : 1024 (1024 binary, 0 integer, 0 implicit integer, 0 continuous)
  Constraints      : 1028 initial, 1028 maximal
  Objective        : minimize, 0 non-zeros (abs.min = 1e+20, abs.max = -1e+20)
Presolved Problem  :
  Problem name     : t_supportcase30
  Variables        : 1024 (1024 binary, 0 integer, 0 implicit integer, 0 continuous)
  Constraints      : 1028 initial, 6959 maximal
  Objective        : minimize, 0 non-zeros (abs.min = 1e+20, abs.max = -1e+20)
  Nonzeros         : 12288 constraint, 0 clique table
Presolvers         :   ExecTime  SetupTime  Calls  FixedVars   AggrVars   ChgTypes  ChgBounds   AddHoles    DelCons    AddCons   ChgSides   ChgCoefs
  boundshift       :       0.00       0.00      0          0          0          0          0          0          0          0          0          0
  convertinttobin  :       0.00       0.00      0          0          0          0          0          0          0          0          0          0
  domcol           :       0.01       0.00      1          0          0          0          0          0          0          0          0          0
  dualagg          :       0.00       0.00      0          0          0          0          0          0          0          0          0          0
  dualcomp         :       0.00       0.00      0          0          0          0          0          0          0          0          0          0
  dualinfer        :       0.00       0.00      0          0          0          0          0          0          0          0          0          0
  dualsparsify     :       0.00       0.00      1          0          0          0          0          0          0          0          0          0
  gateextraction   :       0.00       0.00      0          0          0          0          0          0          0          0          0          0
  implics          :       0.00       0.00      2          0          0          0          0          0          0          0          0          0
  inttobinary      :       0.00       0.00      0          0          0          0          0          0          0          0          0          0
  qpkktref         :       0.00       0.00      0          0          0          0          0          0          0          0          0          0
  redvub           :       0.00       0.00      0          0          0          0          0          0          0          0          0          0
  sparsify         :       0.01       0.00      1          0          0          0          0          0          0          0          0          0
  stuffing         :       0.00       0.00      0          0          0          0          0          0          0          0          0          0
  trivial          :       0.00       0.00      2          0          0          0          0          0          0          0          0          0
  tworowbnd        :       0.00       0.00      0          0          0          0          0          0          0          0          0          0
  dualfix          :       0.00       0.00      2          0          0          0          0          0          0          0          0          0
  genvbounds       :       0.00       0.00      0          0          0          0          0          0          0          0          0          0
  probing          :       0.00       0.00      1          0          0          0          0          0          0          0          0          0
  pseudoobj        :       0.00       0.00      0          0          0          0          0          0          0          0          0          0
  symmetry         :       0.00       0.00      0          0          0          0          0          0          0          0          0          0
  vbounds          :       0.00       0.00      0          0          0          0          0          0          0          0          0          0
  linear           :       0.01       0.00      4          0          0          0          0          0          0          0          0          0
  logicor          :       0.00       0.00      3          0          0          0          0          0          0          0          0          0
  benders          :       0.00       0.00      0          0          0          0          0          0          0          0          0          0
  components       :       0.00       0.00      1          0          0          0          0          0          0          0          0          0
  root node        :          -          -      -          0          -          -          0          -          -          -          -          -
Constraints        :     Number  MaxNumber  #Separate #Propagate    #EnfoLP    #EnfoRelax  #EnfoPS    #Check   #ResProp    Cutoffs    DomReds       Cuts    Applied      Conss   Children
  benderslp        :          0          0          0          0       3453          0          0        178          0          0          0          0          0          0          0
  integral         :          0          0          0          0       3453          0          0        178          0          0          0          0          0          0       6906
  linear           :          4+        14         11      38985          0          0          0        174      31573        103          0          0          0          0          0
  logicor          :       1024+      6955         11      11926          0          0          0          0      20183        361       4719          0          0          0          0
  benders          :          0          0          0          0          0          0          0          0          0          0          0          0          0          0          0
  countsols        :          0          0          0          0          0          0          0          0          0          0          0          0          0          0          0
  components       :          0          0          0          0          0          0          0          0          0          0          0          0          0          0          0
Constraint Timings :  TotalTime  SetupTime   Separate  Propagate     EnfoLP     EnfoPS     EnfoRelax   Check    ResProp    SB-Prop
  benderslp        :       0.00       0.00       0.00       0.00       0.00       0.00       0.00       0.00       0.00       0.00
  integral         :       2.26       0.00       0.00       0.00       2.26       0.00       0.00       0.00       0.00       0.00
  linear           :       0.31       0.00       0.00       0.15       0.00       0.00       0.00       0.00       0.16       0.00
  logicor          :       0.38       0.00       0.00       0.33       0.00       0.00       0.00       0.00       0.04       0.00
  benders          :       0.00       0.00       0.00       0.00       0.00       0.00       0.00       0.00       0.00       0.00
  countsols        :       0.00       0.00       0.00       0.00       0.00       0.00       0.00       0.00       0.00       0.00
  components       :       0.00       0.00       0.00       0.00       0.00       0.00       0.00       0.00       0.00       0.00
Propagators        : #Propagate   #ResProp    Cutoffs    DomReds
  dualfix          :          1          0          0          0
  genvbounds       :          0          0          0          0
  nlobbt           :          0          0          0          0
  obbt             :          0          0          0          0
  probing          :          0          0          0          0
  pseudoobj        :          0          0          0          0
  redcost          :          0          0          0          0
  rootredcost      :          0          0          0          0
  symmetry         :          0          0          0          0
  vbounds          :          0          0          0          0
Propagator Timings :  TotalTime  SetupTime   Presolve  Propagate    ResProp    SB-Prop
  dualfix          :       0.00       0.00       0.00       0.00       0.00       0.00
  genvbounds       :       0.01       0.00       0.00       0.01       0.00       0.00
  nlobbt           :       0.00       0.00       0.00       0.00       0.00       0.00
  obbt             :       0.00       0.00       0.00       0.00       0.00       0.00
  probing          :       0.00       0.00       0.00       0.00       0.00       0.00
  pseudoobj        :       0.01       0.00       0.00       0.01       0.00       0.00
  redcost          :       0.00       0.00       0.00       0.00       0.00       0.00
  rootredcost      :       0.00       0.00       0.00       0.00       0.00       0.00
  symmetry         :       0.00       0.00       0.00       0.00       0.00       0.00
  vbounds          :       0.04       0.00       0.00       0.04       0.00       0.00
Conflict Analysis  :       Time      Calls    Success    DomReds  Conflicts   Literals    Reconvs ReconvLits   Dualrays   Nonzeros   LP Iters   (pool size: [10000,10000])
  propagation      :       0.11        361        340          -        649       49.4          0        0.0          -          -          -
  infeasible LP    :       1.45       3371       3266          -       9828       27.2          1       16.0          0        0.0          0
  bound exceed. LP :       0.00          0          0          -          0        0.0          0        0.0          0        0.0          0
  strong branching :       0.00          0          0          -          0        0.0          0        0.0          -          -          0
  pseudo solution  :       0.00          0          0          -          0        0.0          0        0.0          -          -          -
  applied globally :       0.01          -          -          0       7060       27.7          -          -          0          -          -
  applied locally  :          -          -          -          0          1      205.0          -          -          0          -          -
Separators         :   ExecTime  SetupTime      Calls  RootCalls    Cutoffs    DomReds  FoundCuts ViaPoolAdd  DirectAdd    Applied ViaPoolApp  DirectApp      Conss
  cut pool         :       1.59          -        625         21          -          -       5017       2351          -          -          -          -          -    (maximal pool size:       2770)
  aggregation      :       2.10       0.00         96         11          0          0          0          0          0          0          0          0          0
  > cmir           :          -          -          -          -          -          -          -          0          0          0          0          0          -
  > flowcover      :          -          -          -          -          -          -          -          0          0          0          0          0          -
  > knapsackcover  :          -          -          -          -          -          -          -          0          0          0          0          0          -
  cgmip            :       0.00       0.00          0          0          0          0          0          0          0          0          0          0          0
  clique           :       0.00       0.00          1          1          0          0          0          0          0          0          0          0          0
  closecuts        :       0.00       0.00          0          0          0          0          0          0          0          0          0          0          0
  convexproj       :       0.00       0.00          0          0          0          0          0          0          0          0          0          0          0
  disjunctive      :       0.00       0.00          0          0          0          0          0          0          0          0          0          0          0
  eccuts           :       0.00       0.00          0          0          0          0          0          0          0          0          0          0          0
  gauge            :       0.00       0.00          0          0          0          0          0          0          0          0          0          0          0
  gomory           :       2.84       0.00         95         10          0          0       6251       1497       1300         19         18          1          0
  > gomorymi       :          -          -          -          -          -          -          -       1009        650         19         18          1          -
  > strongcg       :          -          -          -          -          -          -          -        488        650          0          0          0          -
  impliedbounds    :       0.00       0.00         96         11          0          0          0          0          0          0          0          0          0
  interminor       :       0.00       0.00          0          0          0          0          0          0          0          0          0          0          0
  intobj           :       0.00       0.00          0          0          0          0          0          0          0          0          0          0          0
  mcf              :       0.00       0.00          1          1          0          0          0          0          0          0          0          0          0
  minor            :       0.00       0.00          0          0          0          0          0          0          0          0          0          0          0
  mixing           :       0.00       0.00          0          0          0          0          0          0          0          0          0          0          0
  oddcycle         :       0.00       0.00          0          0          0          0          0          0          0          0          0          0          0
  rapidlearning    :      54.08       0.00         75          1          0          5          0          0          0          0          0          0        579
  rlt              :       0.00       0.00         10         10          0          0          0          0          0          0          0          0          0
  zerohalf         :       2.10       0.00         96         11          0          0        180        854        114        849        737        112          0
Cutselectors       :   ExecTime  SetupTime      Calls  RootCalls   Selected     Forced   Filtered  RootSelec   RootForc   RootFilt 
  hybrid           :       0.03       0.00        342         11        868          0       2892         15          0       1241
Pricers            :   ExecTime  SetupTime      Calls       Vars
  problem variables:       0.00          -          0          0
Branching Rules    :   ExecTime  SetupTime   BranchLP  BranchExt   BranchPS    Cutoffs    DomReds       Cuts      Conss   Children
  allfullstrong    :       0.00       0.00          0          0          0          0          0          0          0          0
  cloud            :       0.00       0.00          0          0          0          0          0          0          0          0
  distribution     :       0.00       0.00          0          0          0          0          0          0          0          0
  fullstrong       :       0.00       0.00          0          0          0          0          0          0          0          0
  inference        :       0.00       0.00          0          0          0          0          0          0          0          0
  leastinf         :       0.00       0.00          0          0          0          0          0          0          0          0
  lookahead        :       0.00       0.00          0          0          0          0          0          0          0          0
  mostinf          :       0.00       0.00          0          0          0          0          0          0          0          0
  multaggr         :       0.00       0.00          0          0          0          0          0          0          0          0
  nodereopt        :       0.00       0.00          0          0          0          0          0          0          0          0
  pscost           :       0.00       0.00          0          0          0          0          0          0          0          0
  random           :       0.00       0.00          0          0          0          0          0          0          0          0
  relpscost        :       2.25       0.00       3453          0          0          0          0          0          0       6906
  vanillafullstrong:       0.00       0.00          0          0          0          0          0          0          0          0
Primal Heuristics  :   ExecTime  SetupTime      Calls      Found       Best
  LP solutions     :       0.00          -          -          0          0
  relax solutions  :       0.00          -          -          0          0
  pseudo solutions :       0.00          -          -          0          0
  strong branching :       0.00          -          -          0          0
  actconsdiving    :       0.00       0.00          0          0          0
  adaptivediving   :      12.31       0.00         10          0          0
  alns             :      11.86       0.00          5          0          0
  bound            :       0.00       0.00          0          0          0
  clique           :       0.00       0.00          0          0          0
  coefdiving       :       0.00       0.00          0          0          0
  completesol      :       0.00       0.00          0          0          0
  conflictdiving   :       5.65       0.00          6          0          0
  crossover        :       0.00       0.00          0          0          0
  dins             :       0.00       0.00          0          0          0
  distributiondivin:      10.92       0.00          6          0          0
  dps              :       0.00       0.00          0          0          0
  dualval          :       0.00       0.00          0          0          0
  farkasdiving     :       0.00       0.00          0          0          0
  feaspump         :       4.72       0.00          3          0          0
  fixandinfer      :       0.00       0.00          0          0          0
  fracdiving       :       7.29       0.00          6          0          0
  gins             :       0.00       0.00          0          0          0
  guideddiving     :       0.00       0.00          0          0          0
  indicator        :       0.00       0.00          0          0          0
  intdiving        :       0.00       0.00          0          0          0
  intshifting      :       0.00       0.00          0          0          0
  linesearchdiving :       5.52       0.00          6          0          0
  localbranching   :       0.00       0.00          0          0          0
  locks            :       0.01       0.00          1          0          0
  lpface           :       0.01       0.00          0          0          0
  mpec             :       0.00       0.00          0          0          0
  multistart       :       0.00       0.00          0          0          0
  mutation         :       0.00       0.00          0          0          0
  nlpdiving        :       0.00       0.00          0          0          0
  objpscostdiving  :      11.13       0.00          3          0          0
  octane           :       0.00       0.00          0          0          0
  ofins            :       0.00       0.00          0          0          0
  oneopt           :       0.00       0.00          0          0          0
  padm             :       0.00       0.00          0          0          0
  proximity        :       0.00       0.00          0          0          0
  pscostdiving     :       9.98       0.00          6          0          0
  randrounding     :       0.04       0.00        180          0          0
  rens             :       3.64       0.00          1          0          0
  reoptsols        :       0.00       0.00          0          0          0
  repair           :       0.00       0.00          0          0          0
  rins             :       0.00       0.00          0          0          0
  rootsoldiving    :       4.94       0.00          3          0          0
  rounding         :       0.47       0.00        825          0          0
  shiftandpropagate:       0.00       0.00          1          0          0
  shifting         :       0.98       0.00        297          0          0
  simplerounding   :       0.00       0.00          0          0          0
  subnlp           :       0.00       0.00          0          0          0
  trivial          :       0.00       0.00          2          0          0
  trivialnegation  :       0.00       0.00          0          0          0
  trustregion      :       0.00       0.00          0          0          0
  trysol           :       0.00       0.00          0          0          0
  twoopt           :       0.00       0.00          0          0          0
  undercover       :       0.00       0.00          0          0          0
  vbounds          :       0.00       0.00          0          0          0
  veclendiving     :      13.85       0.00          6          0          0
  zeroobj          :       0.00       0.00          0          0          0
  zirounding       :       0.10       0.00       1000          0          0
  other solutions  :          -          -          -          0          -
LP                 :       Time      Calls Iterations  Iter/call   Iter/sec  Time-0-It Calls-0-It    ItLimit
  primal LP        :       5.24        106          0       0.00       0.00       5.24        106
  dual LP          :    7021.54       7024   43067626    6132.37    6133.64       0.15          1
  lex dual LP      :       0.00          0          0       0.00          -
  barrier LP       :       0.00          0          0       0.00          -       0.00          0
  resolve instable :       0.00          0          0       0.00          -
  diving/probing LP:      85.20        593     525378     885.97    6166.05
  strong branching :       1.54         19       7919     416.79    5148.05          -          -          5
    (at root node) :          -         19       7919     416.79          -
  conflict analysis:       0.00          0          0       0.00          -
B&B Tree           :
  number of runs   :          1
  nodes            :       6699 (3453 internal, 3246 leaves)
  feasible leaves  :          0
  infeas. leaves   :       3245
  objective leaves :          0
  nodes (total)    :       6699 (3453 internal, 3246 leaves)
  nodes left       :        163
  max depth        :         47
  max depth (total):         47
  backtracks       :        919 (13.7%)
  early backtracks :          0 (0.0%)
  nodes exc. ref.  :          0 (0.0%)
  delayed cutoffs  :         46
  repropagations   :      13699 (3997 domain reductions, 35 cutoffs)
  avg switch length:       5.61
  switching time   :       5.46
Root Node          :
  First LP value   : +0.00000000000000e+00
  First LP Iters   :          0
  First LP Time    :       0.15
  Final Dual Bound : +0.00000000000000e+00
  Final Root Iters :       6082
  Root LP Estimate : +8.58450309930054e-03
Solution           :
  Solutions found  :          0 (0 improvements)
  Primal Bound     :          -
  Dual Bound       : +0.00000000000000e+00
  Gap              :   infinite
Integrals          :      Total       Avg%
  primal-dual      :  720000.33     100.00
  primal-ref       :          -          - (not evaluated)
  dual-ref         :          -          - (not evaluated)
written solution information to file <results/final_miplib_symretope_if_extended_generating_set_cpx_v802__settings_final_nosym_norestarts__1__supportcase30.mps.gz.sol>
@04 1686658801
